; benchmark generated from python API
(set-info :status unknown)
(declare-fun x_epoch () Int)
(declare-fun y_epoch () Int)
(declare-fun x_plus_epoch () Int)
(declare-fun x_plus_month () Int)
(declare-fun x_plus_year () Int)
(declare-fun x_plus_day () Int)
(assert
 (>= x_epoch (- 36584)))
(assert
 (<= x_epoch 36829))
(assert
 (>= y_epoch (- 36584)))
(assert
 (<= y_epoch 36829))
(assert
 (= x_epoch 7990))
(assert
 (>= x_plus_epoch (- 36584)))
(assert
 (<= x_plus_epoch 36829))
(assert
 (let (($x747 (= x_plus_month 11)))
 (let (($x953 (= x_plus_month 9)))
 (let (($x481 (= x_plus_month 6)))
 (let (($x900 (= x_plus_month 4)))
 (let ((?x1822 (ite (or $x900 $x481 $x953 $x747) 30 31)))
 (let (($x692 (= (mod x_plus_year 400) 0)))
 (let (($x2657 (= (mod x_plus_year 4) 0)))
 (let (($x458 (or (and $x2657 (and (distinct (mod x_plus_year 100) 0) true)) $x692)))
 (let (($x1888 (= x_plus_month 2)))
 (let (($x320 (>= x_plus_day 1)))
 (let (($x2393 (<= x_plus_month 12)))
 (let (($x737 (>= x_plus_month 1)))
 (let (($x507 (<= x_plus_year 2100)))
 (let (($x674 (>= x_plus_year 1900)))
 (and $x674 $x507 $x737 $x2393 $x320 (<= x_plus_day (ite $x1888 (ite $x458 29 28) ?x1822))))))))))))))))))
(assert
 (let (($x692 (= (mod x_plus_year 400) 0)))
 (let (($x2657 (= (mod x_plus_year 4) 0)))
 (let (($x458 (or (and $x2657 (and (distinct (mod x_plus_year 100) 0) true)) $x692)))
 (let (($x237 (= 2 x_plus_month)))
 (let ((?x533 (ite $x237 (ite $x458 31 31) (ite (= 1 x_plus_month) (ite $x458 0 0) 0))))
 (let (($x662 (= 3 x_plus_month)))
 (let (($x343 (= 4 x_plus_month)))
 (let ((?x740 (ite $x343 (ite $x458 91 90) (ite $x662 (ite $x458 60 59) ?x533))))
 (let (($x851 (= 5 x_plus_month)))
 (let (($x606 (= 6 x_plus_month)))
 (let ((?x522 (ite $x606 (ite $x458 152 151) (ite $x851 (ite $x458 121 120) ?x740))))
 (let (($x3129 (= 7 x_plus_month)))
 (let (($x390 (= 8 x_plus_month)))
 (let ((?x425 (ite $x390 (ite $x458 213 212) (ite $x3129 (ite $x458 182 181) ?x522))))
 (let (($x469 (= 9 x_plus_month)))
 (let (($x544 (= 10 x_plus_month)))
 (let ((?x889 (ite $x544 (ite $x458 274 273) (ite $x469 (ite $x458 244 243) ?x425))))
 (let (($x955 (= 11 x_plus_month)))
 (let (($x516 (= 12 x_plus_month)))
 (let ((?x917 (ite $x516 (ite $x458 335 334) (ite $x955 (ite $x458 305 304) ?x889))))
 (let ((?x700 (+ (* 365 (- x_plus_year 1)) (div (- x_plus_year 1) 4))))
 (let ((?x350 (+ (- ?x700 (div (- x_plus_year 1) 100)) (div (- x_plus_year 1) 400))))
 (= x_plus_epoch (- (+ (+ ?x350 ?x917) (- x_plus_day 1)) 730179)))))))))))))))))))))))))
(assert
 (let ((?x638 (+ x_epoch 730179)))
 (let ((?x468 (mod ?x638 146097)))
 (let ((?x413 (div ?x468 36524)))
 (let ((?x311 (ite (<= 4 ?x413) 3 ?x413)))
 (let ((?x664 (- ?x468 (* ?x311 36524))))
 (let ((?x2143 (mod ?x664 1461)))
 (let ((?x2906 (div ?x2143 365)))
 (let ((?x1133 (ite (<= 4 ?x2906) 3 ?x2906)))
 (let ((?x2783 (+ (+ (* (div ?x638 146097) 400) (* ?x311 100)) (* (div ?x664 1461) 4))))
 (let ((?x3207 (+ (+ ?x2783 ?x1133) 1)))
 (let (($x1815 (or (and (= (mod ?x3207 4) 0) (and (distinct (mod ?x3207 100) 0) true)) (= (mod ?x3207 400) 0))))
 (let ((?x2592 (- ?x2143 (* ?x1133 365))))
 (let ((?x859 (ite $x1815 31 31)))
 (let (($x483 (>= ?x2592 ?x859)))
 (let ((?x2766 (ite $x483 (+ (- ?x2592 ?x859) 1) (+ (- ?x2592 (ite $x1815 0 0)) 1))))
 (let ((?x3066 (ite $x1815 60 59)))
 (let (($x466 (>= ?x2592 ?x3066)))
 (let ((?x3014 (ite $x1815 91 90)))
 (let (($x708 (>= ?x2592 ?x3014)))
 (let ((?x224 (ite $x708 (+ (- ?x2592 ?x3014) 1) (ite $x466 (+ (- ?x2592 ?x3066) 1) ?x2766))))
 (let ((?x1820 (ite $x1815 121 120)))
 (let (($x1341 (>= ?x2592 ?x1820)))
 (let ((?x673 (ite $x1815 152 151)))
 (let (($x211 (>= ?x2592 ?x673)))
 (let ((?x2239 (ite $x211 (+ (- ?x2592 ?x673) 1) (ite $x1341 (+ (- ?x2592 ?x1820) 1) ?x224))))
 (let ((?x1178 (ite $x1815 182 181)))
 (let (($x788 (>= ?x2592 ?x1178)))
 (let ((?x679 (ite $x1815 213 212)))
 (let (($x577 (>= ?x2592 ?x679)))
 (let ((?x2109 (ite $x577 (+ (- ?x2592 ?x679) 1) (ite $x788 (+ (- ?x2592 ?x1178) 1) ?x2239))))
 (let ((?x604 (ite $x1815 244 243)))
 (let (($x1589 (>= ?x2592 ?x604)))
 (let ((?x2532 (ite $x1815 274 273)))
 (let (($x325 (>= ?x2592 ?x2532)))
 (let ((?x235 (ite $x325 (+ (- ?x2592 ?x2532) 1) (ite $x1589 (+ (- ?x2592 ?x604) 1) ?x2109))))
 (let ((?x248 (ite $x1815 305 304)))
 (let (($x1853 (>= ?x2592 ?x248)))
 (let ((?x318 (ite $x1815 335 334)))
 (let (($x3178 (>= ?x2592 ?x318)))
 (let ((?x824 (ite $x3178 (+ (- ?x2592 ?x318) 1) (ite $x1853 (+ (- ?x2592 ?x248) 1) ?x235))))
 (let ((?x1671 (* 0 12)))
 (let ((?x1836 (+ ?x1671 13)))
 (let ((?x362 (ite $x1341 5 (ite $x708 4 (ite $x466 3 (ite $x483 2 1))))))
 (let ((?x610 (ite $x1589 9 (ite $x577 8 (ite $x788 7 (ite $x211 6 ?x362))))))
 (let ((?x2069 (ite $x3178 12 (ite $x1853 11 (ite $x325 10 ?x610)))))
 (let ((?x2897 (+ ?x2069 ?x1836)))
 (let ((?x3090 (- ?x2897 1)))
 (let ((?x1236 (+ (mod ?x3090 12) 1)))
 (let ((?x2194 (ite (or (= ?x1236 4) (= ?x1236 6) (= ?x1236 9) (= ?x1236 11)) 30 31)))
 (let (($x995 (and (= (mod (+ ?x3207 (+ 0 (div ?x3090 12))) 4) 0) (and (distinct (mod (+ ?x3207 (+ 0 (div ?x3090 12))) 100) 0) true))))
 (let (($x1446 (or $x995 (= (mod (+ ?x3207 (+ 0 (div ?x3090 12))) 400) 0))))
 (let ((?x2359 (ite (= ?x1236 2) (ite $x1446 29 28) ?x2194)))
 (let (($x312 (> 1 ?x824)))
 (let ((?x3264 (ite $x312 1 (ite (> ?x824 ?x2359) ?x2359 ?x824))))
 (let ((?x1415 (ite (> 1 ?x3264) 1 (ite (> ?x3264 ?x2359) ?x2359 ?x3264))))
 (let ((?x1427 (ite (= 2 ?x1236) (ite $x1446 31 31) (ite (= 1 ?x1236) (ite $x1446 0 0) 0))))
 (let ((?x2979 (ite (= 4 ?x1236) (ite $x1446 91 90) (ite (= 3 ?x1236) (ite $x1446 60 59) ?x1427))))
 (let ((?x3013 (ite (= 6 ?x1236) (ite $x1446 152 151) (ite (= 5 ?x1236) (ite $x1446 121 120) ?x2979))))
 (let ((?x1476 (ite (= 8 ?x1236) (ite $x1446 213 212) (ite (= 7 ?x1236) (ite $x1446 182 181) ?x3013))))
 (let ((?x1195 (ite (= 10 ?x1236) (ite $x1446 274 273) (ite (= 9 ?x1236) (ite $x1446 244 243) ?x1476))))
 (let ((?x1960 (ite (= 12 ?x1236) (ite $x1446 335 334) (ite (= 11 ?x1236) (ite $x1446 305 304) ?x1195))))
 (let ((?x3524 (+ (* 365 (- (+ ?x3207 (+ 0 (div ?x3090 12))) 1)) (div (- (+ ?x3207 (+ 0 (div ?x3090 12))) 1) 4))))
 (let ((?x2291 (+ (- ?x3524 (div (- (+ ?x3207 (+ 0 (div ?x3090 12))) 1) 100)) (div (- (+ ?x3207 (+ 0 (div ?x3090 12))) 1) 400))))
 (let ((?x3438 (+ (+ (- (+ (+ ?x2291 ?x1960) (- ?x1415 1)) 730179) 40) 730179)))
 (let ((?x3439 (mod ?x3438 146097)))
 (let ((?x2082 (div ?x3439 36524)))
 (let ((?x1997 (ite (<= 4 ?x2082) 3 ?x2082)))
 (let ((?x2937 (- ?x3439 (* ?x1997 36524))))
 (let ((?x1302 (mod ?x2937 1461)))
 (let ((?x2255 (div ?x1302 365)))
 (let ((?x3322 (ite (<= 4 ?x2255) 3 ?x2255)))
 (let ((?x2048 (+ (+ (* (div ?x3438 146097) 400) (* ?x1997 100)) (* (div ?x2937 1461) 4))))
 (let ((?x1758 (+ (+ ?x2048 ?x3322) 1)))
 (let ((?x1453 (+ 0 (div ?x3090 12))))
 (let ((?x1215 (+ ?x3207 ?x1453)))
 (let (($x1388 (= 40 0)))
 (let ((?x1870 (ite $x1388 ?x1215 ?x1758)))
 (= x_plus_year ?x1870)))))))))))))))))))))))))))))))))))))))))))))))))))))))))))))))))))))))))))))))
(assert
 (let ((?x638 (+ x_epoch 730179)))
 (let ((?x468 (mod ?x638 146097)))
 (let ((?x413 (div ?x468 36524)))
 (let ((?x311 (ite (<= 4 ?x413) 3 ?x413)))
 (let ((?x664 (- ?x468 (* ?x311 36524))))
 (let ((?x2143 (mod ?x664 1461)))
 (let ((?x2906 (div ?x2143 365)))
 (let ((?x1133 (ite (<= 4 ?x2906) 3 ?x2906)))
 (let ((?x2783 (+ (+ (* (div ?x638 146097) 400) (* ?x311 100)) (* (div ?x664 1461) 4))))
 (let ((?x3207 (+ (+ ?x2783 ?x1133) 1)))
 (let (($x1815 (or (and (= (mod ?x3207 4) 0) (and (distinct (mod ?x3207 100) 0) true)) (= (mod ?x3207 400) 0))))
 (let ((?x2592 (- ?x2143 (* ?x1133 365))))
 (let ((?x859 (ite $x1815 31 31)))
 (let (($x483 (>= ?x2592 ?x859)))
 (let ((?x2766 (ite $x483 (+ (- ?x2592 ?x859) 1) (+ (- ?x2592 (ite $x1815 0 0)) 1))))
 (let ((?x3066 (ite $x1815 60 59)))
 (let (($x466 (>= ?x2592 ?x3066)))
 (let ((?x3014 (ite $x1815 91 90)))
 (let (($x708 (>= ?x2592 ?x3014)))
 (let ((?x224 (ite $x708 (+ (- ?x2592 ?x3014) 1) (ite $x466 (+ (- ?x2592 ?x3066) 1) ?x2766))))
 (let ((?x1820 (ite $x1815 121 120)))
 (let (($x1341 (>= ?x2592 ?x1820)))
 (let ((?x673 (ite $x1815 152 151)))
 (let (($x211 (>= ?x2592 ?x673)))
 (let ((?x2239 (ite $x211 (+ (- ?x2592 ?x673) 1) (ite $x1341 (+ (- ?x2592 ?x1820) 1) ?x224))))
 (let ((?x1178 (ite $x1815 182 181)))
 (let (($x788 (>= ?x2592 ?x1178)))
 (let ((?x679 (ite $x1815 213 212)))
 (let (($x577 (>= ?x2592 ?x679)))
 (let ((?x2109 (ite $x577 (+ (- ?x2592 ?x679) 1) (ite $x788 (+ (- ?x2592 ?x1178) 1) ?x2239))))
 (let ((?x604 (ite $x1815 244 243)))
 (let (($x1589 (>= ?x2592 ?x604)))
 (let ((?x2532 (ite $x1815 274 273)))
 (let (($x325 (>= ?x2592 ?x2532)))
 (let ((?x235 (ite $x325 (+ (- ?x2592 ?x2532) 1) (ite $x1589 (+ (- ?x2592 ?x604) 1) ?x2109))))
 (let ((?x248 (ite $x1815 305 304)))
 (let (($x1853 (>= ?x2592 ?x248)))
 (let ((?x318 (ite $x1815 335 334)))
 (let (($x3178 (>= ?x2592 ?x318)))
 (let ((?x824 (ite $x3178 (+ (- ?x2592 ?x318) 1) (ite $x1853 (+ (- ?x2592 ?x248) 1) ?x235))))
 (let ((?x1671 (* 0 12)))
 (let ((?x1836 (+ ?x1671 13)))
 (let ((?x362 (ite $x1341 5 (ite $x708 4 (ite $x466 3 (ite $x483 2 1))))))
 (let ((?x610 (ite $x1589 9 (ite $x577 8 (ite $x788 7 (ite $x211 6 ?x362))))))
 (let ((?x2069 (ite $x3178 12 (ite $x1853 11 (ite $x325 10 ?x610)))))
 (let ((?x2897 (+ ?x2069 ?x1836)))
 (let ((?x3090 (- ?x2897 1)))
 (let ((?x1236 (+ (mod ?x3090 12) 1)))
 (let ((?x2194 (ite (or (= ?x1236 4) (= ?x1236 6) (= ?x1236 9) (= ?x1236 11)) 30 31)))
 (let (($x995 (and (= (mod (+ ?x3207 (+ 0 (div ?x3090 12))) 4) 0) (and (distinct (mod (+ ?x3207 (+ 0 (div ?x3090 12))) 100) 0) true))))
 (let (($x1446 (or $x995 (= (mod (+ ?x3207 (+ 0 (div ?x3090 12))) 400) 0))))
 (let ((?x2359 (ite (= ?x1236 2) (ite $x1446 29 28) ?x2194)))
 (let (($x312 (> 1 ?x824)))
 (let ((?x3264 (ite $x312 1 (ite (> ?x824 ?x2359) ?x2359 ?x824))))
 (let ((?x1415 (ite (> 1 ?x3264) 1 (ite (> ?x3264 ?x2359) ?x2359 ?x3264))))
 (let ((?x1427 (ite (= 2 ?x1236) (ite $x1446 31 31) (ite (= 1 ?x1236) (ite $x1446 0 0) 0))))
 (let ((?x2979 (ite (= 4 ?x1236) (ite $x1446 91 90) (ite (= 3 ?x1236) (ite $x1446 60 59) ?x1427))))
 (let ((?x3013 (ite (= 6 ?x1236) (ite $x1446 152 151) (ite (= 5 ?x1236) (ite $x1446 121 120) ?x2979))))
 (let ((?x1476 (ite (= 8 ?x1236) (ite $x1446 213 212) (ite (= 7 ?x1236) (ite $x1446 182 181) ?x3013))))
 (let ((?x1195 (ite (= 10 ?x1236) (ite $x1446 274 273) (ite (= 9 ?x1236) (ite $x1446 244 243) ?x1476))))
 (let ((?x1960 (ite (= 12 ?x1236) (ite $x1446 335 334) (ite (= 11 ?x1236) (ite $x1446 305 304) ?x1195))))
 (let ((?x3524 (+ (* 365 (- (+ ?x3207 (+ 0 (div ?x3090 12))) 1)) (div (- (+ ?x3207 (+ 0 (div ?x3090 12))) 1) 4))))
 (let ((?x2291 (+ (- ?x3524 (div (- (+ ?x3207 (+ 0 (div ?x3090 12))) 1) 100)) (div (- (+ ?x3207 (+ 0 (div ?x3090 12))) 1) 400))))
 (let ((?x3438 (+ (+ (- (+ (+ ?x2291 ?x1960) (- ?x1415 1)) 730179) 40) 730179)))
 (let ((?x3439 (mod ?x3438 146097)))
 (let ((?x2082 (div ?x3439 36524)))
 (let ((?x1997 (ite (<= 4 ?x2082) 3 ?x2082)))
 (let ((?x2937 (- ?x3439 (* ?x1997 36524))))
 (let ((?x1302 (mod ?x2937 1461)))
 (let ((?x2255 (div ?x1302 365)))
 (let ((?x3322 (ite (<= 4 ?x2255) 3 ?x2255)))
 (let ((?x2048 (+ (+ (* (div ?x3438 146097) 400) (* ?x1997 100)) (* (div ?x2937 1461) 4))))
 (let ((?x1758 (+ (+ ?x2048 ?x3322) 1)))
 (let (($x2506 (or (and (= (mod ?x1758 4) 0) (and (distinct (mod ?x1758 100) 0) true)) (= (mod ?x1758 400) 0))))
 (let ((?x3317 (ite $x2506 31 31)))
 (let ((?x1391 (- ?x1302 (* ?x3322 365))))
 (let (($x3204 (>= ?x1391 ?x3317)))
 (let ((?x1099 (ite $x2506 60 59)))
 (let (($x4103 (>= ?x1391 ?x1099)))
 (let ((?x2076 (ite $x2506 91 90)))
 (let (($x4102 (>= ?x1391 ?x2076)))
 (let ((?x2900 (ite $x2506 121 120)))
 (let (($x4101 (>= ?x1391 ?x2900)))
 (let ((?x2569 (ite $x4101 5 (ite $x4102 4 (ite $x4103 3 (ite $x3204 2 1))))))
 (let ((?x3124 (ite $x2506 152 151)))
 (let (($x2336 (>= ?x1391 ?x3124)))
 (let ((?x4079 (ite $x2506 182 181)))
 (let (($x3477 (>= ?x1391 ?x4079)))
 (let ((?x4113 (ite $x2506 213 212)))
 (let (($x1107 (>= ?x1391 ?x4113)))
 (let ((?x4115 (ite $x2506 244 243)))
 (let (($x4090 (>= ?x1391 ?x4115)))
 (let ((?x4093 (ite $x4090 9 (ite $x1107 8 (ite $x3477 7 (ite $x2336 6 ?x2569))))))
 (let ((?x3555 (ite $x2506 274 273)))
 (let (($x4091 (>= ?x1391 ?x3555)))
 (let ((?x4114 (ite $x2506 305 304)))
 (let (($x4095 (>= ?x1391 ?x4114)))
 (let ((?x1198 (ite $x2506 335 334)))
 (let (($x4097 (>= ?x1391 ?x1198)))
 (let ((?x2854 (ite $x4097 12 (ite $x4095 11 (ite $x4091 10 ?x4093)))))
 (let (($x1388 (= 40 0)))
 (let ((?x4060 (ite $x1388 ?x1236 ?x2854)))
 (= x_plus_month ?x4060))))))))))))))))))))))))))))))))))))))))))))))))))))))))))))))))))))))))))))))))))))))))))))))))))))))))
(assert
 (let ((?x638 (+ x_epoch 730179)))
 (let ((?x468 (mod ?x638 146097)))
 (let ((?x413 (div ?x468 36524)))
 (let ((?x311 (ite (<= 4 ?x413) 3 ?x413)))
 (let ((?x664 (- ?x468 (* ?x311 36524))))
 (let ((?x2143 (mod ?x664 1461)))
 (let ((?x2906 (div ?x2143 365)))
 (let ((?x1133 (ite (<= 4 ?x2906) 3 ?x2906)))
 (let ((?x2783 (+ (+ (* (div ?x638 146097) 400) (* ?x311 100)) (* (div ?x664 1461) 4))))
 (let ((?x3207 (+ (+ ?x2783 ?x1133) 1)))
 (let (($x1815 (or (and (= (mod ?x3207 4) 0) (and (distinct (mod ?x3207 100) 0) true)) (= (mod ?x3207 400) 0))))
 (let ((?x2592 (- ?x2143 (* ?x1133 365))))
 (let ((?x859 (ite $x1815 31 31)))
 (let (($x483 (>= ?x2592 ?x859)))
 (let ((?x2766 (ite $x483 (+ (- ?x2592 ?x859) 1) (+ (- ?x2592 (ite $x1815 0 0)) 1))))
 (let ((?x3066 (ite $x1815 60 59)))
 (let (($x466 (>= ?x2592 ?x3066)))
 (let ((?x3014 (ite $x1815 91 90)))
 (let (($x708 (>= ?x2592 ?x3014)))
 (let ((?x224 (ite $x708 (+ (- ?x2592 ?x3014) 1) (ite $x466 (+ (- ?x2592 ?x3066) 1) ?x2766))))
 (let ((?x1820 (ite $x1815 121 120)))
 (let (($x1341 (>= ?x2592 ?x1820)))
 (let ((?x673 (ite $x1815 152 151)))
 (let (($x211 (>= ?x2592 ?x673)))
 (let ((?x2239 (ite $x211 (+ (- ?x2592 ?x673) 1) (ite $x1341 (+ (- ?x2592 ?x1820) 1) ?x224))))
 (let ((?x1178 (ite $x1815 182 181)))
 (let (($x788 (>= ?x2592 ?x1178)))
 (let ((?x679 (ite $x1815 213 212)))
 (let (($x577 (>= ?x2592 ?x679)))
 (let ((?x2109 (ite $x577 (+ (- ?x2592 ?x679) 1) (ite $x788 (+ (- ?x2592 ?x1178) 1) ?x2239))))
 (let ((?x604 (ite $x1815 244 243)))
 (let (($x1589 (>= ?x2592 ?x604)))
 (let ((?x2532 (ite $x1815 274 273)))
 (let (($x325 (>= ?x2592 ?x2532)))
 (let ((?x235 (ite $x325 (+ (- ?x2592 ?x2532) 1) (ite $x1589 (+ (- ?x2592 ?x604) 1) ?x2109))))
 (let ((?x248 (ite $x1815 305 304)))
 (let (($x1853 (>= ?x2592 ?x248)))
 (let ((?x318 (ite $x1815 335 334)))
 (let (($x3178 (>= ?x2592 ?x318)))
 (let ((?x824 (ite $x3178 (+ (- ?x2592 ?x318) 1) (ite $x1853 (+ (- ?x2592 ?x248) 1) ?x235))))
 (let ((?x1671 (* 0 12)))
 (let ((?x1836 (+ ?x1671 13)))
 (let ((?x362 (ite $x1341 5 (ite $x708 4 (ite $x466 3 (ite $x483 2 1))))))
 (let ((?x610 (ite $x1589 9 (ite $x577 8 (ite $x788 7 (ite $x211 6 ?x362))))))
 (let ((?x2069 (ite $x3178 12 (ite $x1853 11 (ite $x325 10 ?x610)))))
 (let ((?x2897 (+ ?x2069 ?x1836)))
 (let ((?x3090 (- ?x2897 1)))
 (let ((?x1236 (+ (mod ?x3090 12) 1)))
 (let ((?x2194 (ite (or (= ?x1236 4) (= ?x1236 6) (= ?x1236 9) (= ?x1236 11)) 30 31)))
 (let (($x995 (and (= (mod (+ ?x3207 (+ 0 (div ?x3090 12))) 4) 0) (and (distinct (mod (+ ?x3207 (+ 0 (div ?x3090 12))) 100) 0) true))))
 (let (($x1446 (or $x995 (= (mod (+ ?x3207 (+ 0 (div ?x3090 12))) 400) 0))))
 (let ((?x2359 (ite (= ?x1236 2) (ite $x1446 29 28) ?x2194)))
 (let (($x312 (> 1 ?x824)))
 (let ((?x3264 (ite $x312 1 (ite (> ?x824 ?x2359) ?x2359 ?x824))))
 (let ((?x1415 (ite (> 1 ?x3264) 1 (ite (> ?x3264 ?x2359) ?x2359 ?x3264))))
 (let ((?x1427 (ite (= 2 ?x1236) (ite $x1446 31 31) (ite (= 1 ?x1236) (ite $x1446 0 0) 0))))
 (let ((?x2979 (ite (= 4 ?x1236) (ite $x1446 91 90) (ite (= 3 ?x1236) (ite $x1446 60 59) ?x1427))))
 (let ((?x3013 (ite (= 6 ?x1236) (ite $x1446 152 151) (ite (= 5 ?x1236) (ite $x1446 121 120) ?x2979))))
 (let ((?x1476 (ite (= 8 ?x1236) (ite $x1446 213 212) (ite (= 7 ?x1236) (ite $x1446 182 181) ?x3013))))
 (let ((?x1195 (ite (= 10 ?x1236) (ite $x1446 274 273) (ite (= 9 ?x1236) (ite $x1446 244 243) ?x1476))))
 (let ((?x1960 (ite (= 12 ?x1236) (ite $x1446 335 334) (ite (= 11 ?x1236) (ite $x1446 305 304) ?x1195))))
 (let ((?x3524 (+ (* 365 (- (+ ?x3207 (+ 0 (div ?x3090 12))) 1)) (div (- (+ ?x3207 (+ 0 (div ?x3090 12))) 1) 4))))
 (let ((?x2291 (+ (- ?x3524 (div (- (+ ?x3207 (+ 0 (div ?x3090 12))) 1) 100)) (div (- (+ ?x3207 (+ 0 (div ?x3090 12))) 1) 400))))
 (let ((?x3438 (+ (+ (- (+ (+ ?x2291 ?x1960) (- ?x1415 1)) 730179) 40) 730179)))
 (let ((?x3439 (mod ?x3438 146097)))
 (let ((?x2082 (div ?x3439 36524)))
 (let ((?x1997 (ite (<= 4 ?x2082) 3 ?x2082)))
 (let ((?x2937 (- ?x3439 (* ?x1997 36524))))
 (let ((?x1302 (mod ?x2937 1461)))
 (let ((?x2255 (div ?x1302 365)))
 (let ((?x3322 (ite (<= 4 ?x2255) 3 ?x2255)))
 (let ((?x2048 (+ (+ (* (div ?x3438 146097) 400) (* ?x1997 100)) (* (div ?x2937 1461) 4))))
 (let ((?x1758 (+ (+ ?x2048 ?x3322) 1)))
 (let (($x2506 (or (and (= (mod ?x1758 4) 0) (and (distinct (mod ?x1758 100) 0) true)) (= (mod ?x1758 400) 0))))
 (let ((?x1391 (- ?x1302 (* ?x3322 365))))
 (let ((?x3317 (ite $x2506 31 31)))
 (let (($x3204 (>= ?x1391 ?x3317)))
 (let ((?x2043 (ite $x3204 (+ (- ?x1391 ?x3317) 1) (+ (- ?x1391 (ite $x2506 0 0)) 1))))
 (let ((?x1099 (ite $x2506 60 59)))
 (let (($x4103 (>= ?x1391 ?x1099)))
 (let ((?x2076 (ite $x2506 91 90)))
 (let (($x4102 (>= ?x1391 ?x2076)))
 (let ((?x3533 (ite $x4102 (+ (- ?x1391 ?x2076) 1) (ite $x4103 (+ (- ?x1391 ?x1099) 1) ?x2043))))
 (let ((?x2900 (ite $x2506 121 120)))
 (let (($x4101 (>= ?x1391 ?x2900)))
 (let ((?x3124 (ite $x2506 152 151)))
 (let (($x2336 (>= ?x1391 ?x3124)))
 (let ((?x593 (ite $x2336 (+ (- ?x1391 ?x3124) 1) (ite $x4101 (+ (- ?x1391 ?x2900) 1) ?x3533))))
 (let ((?x4079 (ite $x2506 182 181)))
 (let (($x3477 (>= ?x1391 ?x4079)))
 (let ((?x4113 (ite $x2506 213 212)))
 (let (($x1107 (>= ?x1391 ?x4113)))
 (let ((?x2561 (ite $x1107 (+ (- ?x1391 ?x4113) 1) (ite $x3477 (+ (- ?x1391 ?x4079) 1) ?x593))))
 (let ((?x4115 (ite $x2506 244 243)))
 (let (($x4090 (>= ?x1391 ?x4115)))
 (let ((?x3555 (ite $x2506 274 273)))
 (let (($x4091 (>= ?x1391 ?x3555)))
 (let ((?x4070 (ite $x4091 (+ (- ?x1391 ?x3555) 1) (ite $x4090 (+ (- ?x1391 ?x4115) 1) ?x2561))))
 (let ((?x4114 (ite $x2506 305 304)))
 (let (($x4095 (>= ?x1391 ?x4114)))
 (let ((?x1198 (ite $x2506 335 334)))
 (let (($x4097 (>= ?x1391 ?x1198)))
 (let ((?x3474 (ite $x4097 (+ (- ?x1391 ?x1198) 1) (ite $x4095 (+ (- ?x1391 ?x4114) 1) ?x4070))))
 (let (($x1388 (= 40 0)))
 (let ((?x2599 (ite $x1388 ?x1415 ?x3474)))
 (= x_plus_day ?x2599)))))))))))))))))))))))))))))))))))))))))))))))))))))))))))))))))))))))))))))))))))))))))))))))))))))))))))
(assert
 (= y_epoch x_plus_epoch))
(assert
 (not (= y_epoch 8395)))
(check-sat)
